unknown
(model
; cardinality of BoundSet is 1
(declare-sort BoundSet 0)
; rep: @uc_BoundSet_0
; cardinality of UnboundSet is 1
(declare-sort UnboundSet 0)
(declare-fun groundTerm_2 () UnboundSet)
(define-fun Drinks ((BOUND_VARIABLE_396 BoundSet)) Bool true)
(define-fun Parties ((BOUND_VARIABLE_396 BoundSet)) Bool true)
(define-fun HasMultiplePartners ((BOUND_VARIABLE_396 BoundSet)) Bool true)
(define-fun CannotBeTrusted ((BOUND_VARIABLE_396 BoundSet)) Bool false)
(define-fun IsHealthFood ((BOUND_VARIABLE_396 BoundSet)) Bool false)
)
sat
(model
; cardinality of BoundSet is 1
(declare-sort BoundSet 0)
; rep: @uc_BoundSet_0
; cardinality of UnboundSet is 1
(declare-sort UnboundSet 0)
(declare-fun groundTerm_4 () UnboundSet)
(define-fun Drinks ((BOUND_VARIABLE_423 BoundSet)) Bool true)
(define-fun Parties ((BOUND_VARIABLE_423 BoundSet)) Bool true)
(define-fun HasMultiplePartners ((BOUND_VARIABLE_423 BoundSet)) Bool true)
(define-fun CannotBeTrusted ((BOUND_VARIABLE_423 BoundSet)) Bool false)
(define-fun IsHealthFood ((BOUND_VARIABLE_423 BoundSet)) Bool false)
)
